# deepmd 2.0.1
pair_style      deepmd model.pb   # 1 H 2 O 
pair_coeff 

# mass            1 1.008
# mass            2 15.999

