 &GLOBAL
   PRINT_LEVEL            HIGH
   PROJECT_NAME           static
   RUN_TYPE               ENERGY_FORCE
   EXTENDED_FFT_LENGTHS   T
 &END GLOBAL
 &FORCE_EVAL
   METHOD        QS
   STRESS_TENSOR ANALYTICAL
   &DFT
     BASIS_SET_FILE_NAME ./BASIS_MOLOPT
     POTENTIAL_FILE_NAME ./GTH_POTENTIALS
     &SCF
      SCF_GUESS RESTART
      EPS_SCF 5.0E-6
      EPS_DIIS 1.0E-1
      MAX_SCF 100
      CHOLESKY INVERSE
      &OT                       T 
        ALGORITHM               STRICT
        IRAC_DEGREE             4
        MAX_IRAC                50
        ORTHO_IRAC              CHOL
        EPS_IRAC                1.0000E-10
        EPS_IRAC_QUICK_EXIT     1.0000E-05
        EPS_IRAC_SWITCH         1.0000E-02
        ON_THE_FLY_LOC          F
        MINIMIZER               DIIS
        SAFE_DIIS               T
        N_DIIS                  5
        LINESEARCH              2PNT
        STEPSIZE                1.5000E-01
        GOLD_TARGET             1.0000E-02
        PRECONDITIONER          FULL_SINGLE_INVERSE
        PRECOND_SOLVER          DEFAULT
        ENERGY_GAP              1.0000E-01
        EPS_TAYLOR              1.0000E-16
        MAX_TAYLOR              4
        ROTATION                F
        ENERGIES                F
      &END OT
      &OUTER_SCF                T
        TYPE                    NONE
        OPTIMIZER               NONE
        BISECT_TRUST_COUNT      10
        EPS_SCF                 2.000E-07
        DIIS_BUFFER_LENGTH      3
        EXTRAPOLATION_ORDER     3
        MAX_SCF                 15
        STEP_SIZE               5.000E-01
      &END OUTER_SCF
&PRINT 
       &RESTART OFF 
       &END RESTART 
      &END PRINT

     &END SCF
      &QS
       EPS_DEFAULT          1.000E-10
       EXTRAPOLATION        ASPC
       EXTRAPOLATION_ORDER  3
       METHOD               GPW
       MAP_CONSISTENT 
     &END QS
     &MGRID
       NGRIDS               5
       CUTOFF               800
       REL_CUTOFF           50
     &END MGRID
     &XC
       DENSITY_CUTOFF               1.0000E-10
       GRADIENT_CUTOFF              1.0000E-10
       DENSITY_SMOOTH_CUTOFF_RANGE  0.0000E+00
       TAU_CUTOFF                   1.0000E-10
       FUNCTIONAL_ROUTINE           NEW
       &XC_GRID
         XC_SMOOTH_RHO              NONE
         XC_DERIV                   PW
         USE_FINER_GRID             F
       &END XC_GRID
      &XC_FUNCTIONAL
        &LIBXC
          FUNCTIONAL XC_GGA_X_RPW86
        &END LIBXC
        &VWN
        &END VWN
      &END XC_FUNCTIONAL
       &XC_POTENTIAL
         ENERGY                     NONE
       &END XC_POTENTIAL
      &vdW_POTENTIAL
         DISPERSION_FUNCTIONAL NON_LOCAL
         &NON_LOCAL
            TYPE LMKLL
            KERNEL_FILE_NAME ./vdW_kernel_table.dat
            CUTOFF  80
         &END NON_LOCAL
       &END vdW_POTENTIAL
     &END XC
     &POISSON
       POISSON_SOLVER  periodic
       PERIODIC        xyz
     &END POISSON
      UKS T      
     MULTIPLICITY 1
&PRINT
     &EFIELD_CUBE OFF 
     &END EFIELD_CUBE 
  &TOT_DENSITY_CUBE OFF
  &END TOT_DENSITY_CUBE
 &V_HARTREE_CUBE  OFF
   &END V_HARTREE_CUBE
  &E_DENSITY_CUBE  OFF
   &END E_DENSITY_CUBE
 &MO_CUBES        OFF
   &END MO_CUBES
 &END PRINT

   &END DFT
######################################################################
#                                                                    #
######################################################################
   &SUBSYS
     &CELL
A            10.1831399999999999          0.0000000000000000          0.0000000000000000
B             0.0000000000000000          8.9875035000000008          0.0000000000000000
C             0.0000000000000000          0.0000000000000000         30.0000000000000000
       PERIODIC xyz
       MULTIPLE_UNIT_CELL  1  1  1
     &END CELL
     &TOPOLOGY
       MULTIPLE_UNIT_CELL   1  1  1
       COORD_FILE_FORMAT XYZ
       COORD_FILE_NAME   geometry.xyz
     &END TOPOLOGY
     &KIND H
      BASIS_SET TZV2P-MOLOPT-GTH-q1
      POTENTIAL GTH-PBE-q1
     &END KIND
     &KIND O
      BASIS_SET TZV2P-MOLOPT-GTH-q6
      POTENTIAL GTH-PBE-q6
     &END KIND
   &END SUBSYS
 &END FORCE_EVAL
